p cnf 492 2252
c p weight 200 0 0
c p weight -200 1 0
c p weight 201 1 0
c p weight -201 1 0
c p weight 489 -1 0
c p weight -489 1 0
c p weight 492 0.5 0
492 0
-195 0
-193 0
-191 0
-189 0
-187 0
-185 0
-183 0
-181 0
-179 0
-177 0
-175 0
-173 0
-171 0
-169 0
-167 0
-165 0
-163 0
-161 0
-159 0
-157 0
-155 0
-153 0
-151 0
-149 0
-147 0
-145 0
-143 0
-141 0
-139 0
-137 0
-135 0
-133 0
-131 0
-129 0
-127 0
-125 0
-123 0
-121 0
-119 0
-117 0
-115 0
-113 0
-111 0
-109 0
-107 0
-105 0
-103 0
-101 0
-99 0
-97 0
-95 0
-93 0
-91 0
-89 0
-87 0
-85 0
-83 0
-81 0
-79 0
-77 0
-75 0
-73 0
-71 0
-69 0
-67 0
-65 0
-63 0
-61 0
-59 0
-57 0
-55 0
-53 0
-51 0
-49 0
-47 0
-45 0
-43 0
-41 0
-39 0
-37 0
-35 0
-33 0
-31 0
-29 0
-27 0
-25 0
-23 0
-21 0
-19 0
-17 0
-15 0
-13 0
-11 0
-9 0
-7 0
-5 0
-3 0
-1 0
196 -195 193 0
196 -195 194 0
-196 195 193 0
-196 195 194 0
196 195 -193 -194 0
-196 -195 -193 -194 0
197 193 -194 0
197 -193 194 0
-197 193 194 0
-197 -193 -194 0
198 199 -196 0
198 -196 197 0
-198 199 196 0
-198 196 197 0
198 -196 -193 0
-198 196 -193 0
198 -199 196 193 -197 0
-198 -199 -196 193 -197 0
199 -193 197 0
-199 193 197 0
-200 197 0
199 -200 -193 0
-199 -200 193 0
199 200 193 -197 0
-199 200 -193 -197 0
-201 197 0
199 -201 193 0
-199 -201 -193 0
199 201 -193 -197 0
-199 201 193 -197 0
202 -198 199 0
202 -198 197 0
-202 198 199 0
-202 198 197 0
202 198 -199 -197 0
-202 -198 -199 -197 0
203 199 -197 0
203 -199 197 0
-203 199 197 0
-203 -199 -197 0
204 -202 199 0
204 -202 192 0
-204 202 199 0
-204 202 192 0
204 -202 191 -203 0
204 -202 -191 203 0
-204 202 191 -203 0
-204 202 -191 203 0
204 202 -199 191 203 -192 0
204 202 -199 -191 -203 -192 0
-204 -202 -199 191 203 -192 0
-204 -202 -199 -191 -203 -192 0
206 199 -191 0
206 -199 191 0
-206 199 191 0
-206 -199 -191 0
205 203 -192 0
205 -203 192 0
-205 203 192 0
-205 -203 -192 0
207 -204 206 0
207 -204 190 0
-207 204 206 0
-207 204 190 0
207 -204 189 -192 0
207 -204 -189 192 0
-207 204 189 -192 0
-207 204 -189 192 0
207 204 -206 189 192 -190 0
207 204 -206 -189 -192 -190 0
-207 -204 -206 189 192 -190 0
-207 -204 -206 -189 -192 -190 0
209 206 -189 0
209 -206 189 0
-209 206 189 0
-209 -206 -189 0
208 192 -190 0
208 -192 190 0
-208 192 190 0
-208 -192 -190 0
210 -207 209 0
210 -207 188 0
-210 207 209 0
-210 207 188 0
210 -207 187 -190 0
210 -207 -187 190 0
-210 207 187 -190 0
-210 207 -187 190 0
210 207 -209 187 190 -188 0
210 207 -209 -187 -190 -188 0
-210 -207 -209 187 190 -188 0
-210 -207 -209 -187 -190 -188 0
212 209 -187 0
212 -209 187 0
-212 209 187 0
-212 -209 -187 0
211 190 -188 0
211 -190 188 0
-211 190 188 0
-211 -190 -188 0
213 -210 212 0
213 -210 186 0
-213 210 212 0
-213 210 186 0
213 -210 185 -188 0
213 -210 -185 188 0
-213 210 185 -188 0
-213 210 -185 188 0
213 210 -212 185 188 -186 0
213 210 -212 -185 -188 -186 0
-213 -210 -212 185 188 -186 0
-213 -210 -212 -185 -188 -186 0
215 212 -185 0
215 -212 185 0
-215 212 185 0
-215 -212 -185 0
214 188 -186 0
214 -188 186 0
-214 188 186 0
-214 -188 -186 0
216 -213 215 0
216 -213 184 0
-216 213 215 0
-216 213 184 0
216 -213 183 -186 0
216 -213 -183 186 0
-216 213 183 -186 0
-216 213 -183 186 0
216 213 -215 183 186 -184 0
216 213 -215 -183 -186 -184 0
-216 -213 -215 183 186 -184 0
-216 -213 -215 -183 -186 -184 0
218 215 -183 0
218 -215 183 0
-218 215 183 0
-218 -215 -183 0
217 186 -184 0
217 -186 184 0
-217 186 184 0
-217 -186 -184 0
219 -216 218 0
219 -216 182 0
-219 216 218 0
-219 216 182 0
219 -216 181 -184 0
219 -216 -181 184 0
-219 216 181 -184 0
-219 216 -181 184 0
219 216 -218 181 184 -182 0
219 216 -218 -181 -184 -182 0
-219 -216 -218 181 184 -182 0
-219 -216 -218 -181 -184 -182 0
221 218 -181 0
221 -218 181 0
-221 218 181 0
-221 -218 -181 0
220 184 -182 0
220 -184 182 0
-220 184 182 0
-220 -184 -182 0
222 -219 221 0
222 -219 180 0
-222 219 221 0
-222 219 180 0
222 -219 179 -182 0
222 -219 -179 182 0
-222 219 179 -182 0
-222 219 -179 182 0
222 219 -221 179 182 -180 0
222 219 -221 -179 -182 -180 0
-222 -219 -221 179 182 -180 0
-222 -219 -221 -179 -182 -180 0
224 221 -179 0
224 -221 179 0
-224 221 179 0
-224 -221 -179 0
223 182 -180 0
223 -182 180 0
-223 182 180 0
-223 -182 -180 0
225 -222 224 0
225 -222 178 0
-225 222 224 0
-225 222 178 0
225 -222 177 -180 0
225 -222 -177 180 0
-225 222 177 -180 0
-225 222 -177 180 0
225 222 -224 177 180 -178 0
225 222 -224 -177 -180 -178 0
-225 -222 -224 177 180 -178 0
-225 -222 -224 -177 -180 -178 0
227 224 -177 0
227 -224 177 0
-227 224 177 0
-227 -224 -177 0
226 180 -178 0
226 -180 178 0
-226 180 178 0
-226 -180 -178 0
228 -225 227 0
228 -225 176 0
-228 225 227 0
-228 225 176 0
228 -225 175 -178 0
228 -225 -175 178 0
-228 225 175 -178 0
-228 225 -175 178 0
228 225 -227 175 178 -176 0
228 225 -227 -175 -178 -176 0
-228 -225 -227 175 178 -176 0
-228 -225 -227 -175 -178 -176 0
230 227 -175 0
230 -227 175 0
-230 227 175 0
-230 -227 -175 0
229 178 -176 0
229 -178 176 0
-229 178 176 0
-229 -178 -176 0
231 -228 230 0
231 -228 174 0
-231 228 230 0
-231 228 174 0
231 -228 173 -176 0
231 -228 -173 176 0
-231 228 173 -176 0
-231 228 -173 176 0
231 228 -230 173 176 -174 0
231 228 -230 -173 -176 -174 0
-231 -228 -230 173 176 -174 0
-231 -228 -230 -173 -176 -174 0
233 230 -173 0
233 -230 173 0
-233 230 173 0
-233 -230 -173 0
232 176 -174 0
232 -176 174 0
-232 176 174 0
-232 -176 -174 0
234 -231 233 0
234 -231 172 0
-234 231 233 0
-234 231 172 0
234 -231 171 -174 0
234 -231 -171 174 0
-234 231 171 -174 0
-234 231 -171 174 0
234 231 -233 171 174 -172 0
234 231 -233 -171 -174 -172 0
-234 -231 -233 171 174 -172 0
-234 -231 -233 -171 -174 -172 0
236 233 -171 0
236 -233 171 0
-236 233 171 0
-236 -233 -171 0
235 174 -172 0
235 -174 172 0
-235 174 172 0
-235 -174 -172 0
237 -234 236 0
237 -234 170 0
-237 234 236 0
-237 234 170 0
237 -234 169 -172 0
237 -234 -169 172 0
-237 234 169 -172 0
-237 234 -169 172 0
237 234 -236 169 172 -170 0
237 234 -236 -169 -172 -170 0
-237 -234 -236 169 172 -170 0
-237 -234 -236 -169 -172 -170 0
239 236 -169 0
239 -236 169 0
-239 236 169 0
-239 -236 -169 0
238 172 -170 0
238 -172 170 0
-238 172 170 0
-238 -172 -170 0
240 -237 239 0
240 -237 168 0
-240 237 239 0
-240 237 168 0
240 -237 167 -170 0
240 -237 -167 170 0
-240 237 167 -170 0
-240 237 -167 170 0
240 237 -239 167 170 -168 0
240 237 -239 -167 -170 -168 0
-240 -237 -239 167 170 -168 0
-240 -237 -239 -167 -170 -168 0
242 239 -167 0
242 -239 167 0
-242 239 167 0
-242 -239 -167 0
241 170 -168 0
241 -170 168 0
-241 170 168 0
-241 -170 -168 0
243 -240 242 0
243 -240 166 0
-243 240 242 0
-243 240 166 0
243 -240 165 -168 0
243 -240 -165 168 0
-243 240 165 -168 0
-243 240 -165 168 0
243 240 -242 165 168 -166 0
243 240 -242 -165 -168 -166 0
-243 -240 -242 165 168 -166 0
-243 -240 -242 -165 -168 -166 0
245 242 -165 0
245 -242 165 0
-245 242 165 0
-245 -242 -165 0
244 168 -166 0
244 -168 166 0
-244 168 166 0
-244 -168 -166 0
246 -243 245 0
246 -243 164 0
-246 243 245 0
-246 243 164 0
246 -243 163 -166 0
246 -243 -163 166 0
-246 243 163 -166 0
-246 243 -163 166 0
246 243 -245 163 166 -164 0
246 243 -245 -163 -166 -164 0
-246 -243 -245 163 166 -164 0
-246 -243 -245 -163 -166 -164 0
248 245 -163 0
248 -245 163 0
-248 245 163 0
-248 -245 -163 0
247 166 -164 0
247 -166 164 0
-247 166 164 0
-247 -166 -164 0
249 -246 248 0
249 -246 162 0
-249 246 248 0
-249 246 162 0
249 -246 161 -164 0
249 -246 -161 164 0
-249 246 161 -164 0
-249 246 -161 164 0
249 246 -248 161 164 -162 0
249 246 -248 -161 -164 -162 0
-249 -246 -248 161 164 -162 0
-249 -246 -248 -161 -164 -162 0
251 248 -161 0
251 -248 161 0
-251 248 161 0
-251 -248 -161 0
250 164 -162 0
250 -164 162 0
-250 164 162 0
-250 -164 -162 0
252 -249 251 0
252 -249 160 0
-252 249 251 0
-252 249 160 0
252 -249 159 -162 0
252 -249 -159 162 0
-252 249 159 -162 0
-252 249 -159 162 0
252 249 -251 159 162 -160 0
252 249 -251 -159 -162 -160 0
-252 -249 -251 159 162 -160 0
-252 -249 -251 -159 -162 -160 0
254 251 -159 0
254 -251 159 0
-254 251 159 0
-254 -251 -159 0
253 162 -160 0
253 -162 160 0
-253 162 160 0
-253 -162 -160 0
255 -252 254 0
255 -252 158 0
-255 252 254 0
-255 252 158 0
255 -252 157 -160 0
255 -252 -157 160 0
-255 252 157 -160 0
-255 252 -157 160 0
255 252 -254 157 160 -158 0
255 252 -254 -157 -160 -158 0
-255 -252 -254 157 160 -158 0
-255 -252 -254 -157 -160 -158 0
257 254 -157 0
257 -254 157 0
-257 254 157 0
-257 -254 -157 0
256 160 -158 0
256 -160 158 0
-256 160 158 0
-256 -160 -158 0
258 -255 257 0
258 -255 156 0
-258 255 257 0
-258 255 156 0
258 -255 155 -158 0
258 -255 -155 158 0
-258 255 155 -158 0
-258 255 -155 158 0
258 255 -257 155 158 -156 0
258 255 -257 -155 -158 -156 0
-258 -255 -257 155 158 -156 0
-258 -255 -257 -155 -158 -156 0
260 257 -155 0
260 -257 155 0
-260 257 155 0
-260 -257 -155 0
259 158 -156 0
259 -158 156 0
-259 158 156 0
-259 -158 -156 0
261 -258 260 0
261 -258 154 0
-261 258 260 0
-261 258 154 0
261 -258 153 -156 0
261 -258 -153 156 0
-261 258 153 -156 0
-261 258 -153 156 0
261 258 -260 153 156 -154 0
261 258 -260 -153 -156 -154 0
-261 -258 -260 153 156 -154 0
-261 -258 -260 -153 -156 -154 0
263 260 -153 0
263 -260 153 0
-263 260 153 0
-263 -260 -153 0
262 156 -154 0
262 -156 154 0
-262 156 154 0
-262 -156 -154 0
264 -261 263 0
264 -261 152 0
-264 261 263 0
-264 261 152 0
264 -261 151 -154 0
264 -261 -151 154 0
-264 261 151 -154 0
-264 261 -151 154 0
264 261 -263 151 154 -152 0
264 261 -263 -151 -154 -152 0
-264 -261 -263 151 154 -152 0
-264 -261 -263 -151 -154 -152 0
266 263 -151 0
266 -263 151 0
-266 263 151 0
-266 -263 -151 0
265 154 -152 0
265 -154 152 0
-265 154 152 0
-265 -154 -152 0
267 -264 266 0
267 -264 150 0
-267 264 266 0
-267 264 150 0
267 -264 149 -152 0
267 -264 -149 152 0
-267 264 149 -152 0
-267 264 -149 152 0
267 264 -266 149 152 -150 0
267 264 -266 -149 -152 -150 0
-267 -264 -266 149 152 -150 0
-267 -264 -266 -149 -152 -150 0
269 266 -149 0
269 -266 149 0
-269 266 149 0
-269 -266 -149 0
268 152 -150 0
268 -152 150 0
-268 152 150 0
-268 -152 -150 0
270 -267 269 0
270 -267 148 0
-270 267 269 0
-270 267 148 0
270 -267 147 -150 0
270 -267 -147 150 0
-270 267 147 -150 0
-270 267 -147 150 0
270 267 -269 147 150 -148 0
270 267 -269 -147 -150 -148 0
-270 -267 -269 147 150 -148 0
-270 -267 -269 -147 -150 -148 0
272 269 -147 0
272 -269 147 0
-272 269 147 0
-272 -269 -147 0
271 150 -148 0
271 -150 148 0
-271 150 148 0
-271 -150 -148 0
273 -270 272 0
273 -270 146 0
-273 270 272 0
-273 270 146 0
273 -270 145 -148 0
273 -270 -145 148 0
-273 270 145 -148 0
-273 270 -145 148 0
273 270 -272 145 148 -146 0
273 270 -272 -145 -148 -146 0
-273 -270 -272 145 148 -146 0
-273 -270 -272 -145 -148 -146 0
275 272 -145 0
275 -272 145 0
-275 272 145 0
-275 -272 -145 0
274 148 -146 0
274 -148 146 0
-274 148 146 0
-274 -148 -146 0
276 -273 275 0
276 -273 144 0
-276 273 275 0
-276 273 144 0
276 -273 143 -146 0
276 -273 -143 146 0
-276 273 143 -146 0
-276 273 -143 146 0
276 273 -275 143 146 -144 0
276 273 -275 -143 -146 -144 0
-276 -273 -275 143 146 -144 0
-276 -273 -275 -143 -146 -144 0
278 275 -143 0
278 -275 143 0
-278 275 143 0
-278 -275 -143 0
277 146 -144 0
277 -146 144 0
-277 146 144 0
-277 -146 -144 0
279 -276 278 0
279 -276 142 0
-279 276 278 0
-279 276 142 0
279 -276 141 -144 0
279 -276 -141 144 0
-279 276 141 -144 0
-279 276 -141 144 0
279 276 -278 141 144 -142 0
279 276 -278 -141 -144 -142 0
-279 -276 -278 141 144 -142 0
-279 -276 -278 -141 -144 -142 0
281 278 -141 0
281 -278 141 0
-281 278 141 0
-281 -278 -141 0
280 144 -142 0
280 -144 142 0
-280 144 142 0
-280 -144 -142 0
282 -279 281 0
282 -279 140 0
-282 279 281 0
-282 279 140 0
282 -279 139 -142 0
282 -279 -139 142 0
-282 279 139 -142 0
-282 279 -139 142 0
282 279 -281 139 142 -140 0
282 279 -281 -139 -142 -140 0
-282 -279 -281 139 142 -140 0
-282 -279 -281 -139 -142 -140 0
284 281 -139 0
284 -281 139 0
-284 281 139 0
-284 -281 -139 0
283 142 -140 0
283 -142 140 0
-283 142 140 0
-283 -142 -140 0
285 -282 284 0
285 -282 138 0
-285 282 284 0
-285 282 138 0
285 -282 137 -140 0
285 -282 -137 140 0
-285 282 137 -140 0
-285 282 -137 140 0
285 282 -284 137 140 -138 0
285 282 -284 -137 -140 -138 0
-285 -282 -284 137 140 -138 0
-285 -282 -284 -137 -140 -138 0
287 284 -137 0
287 -284 137 0
-287 284 137 0
-287 -284 -137 0
286 140 -138 0
286 -140 138 0
-286 140 138 0
-286 -140 -138 0
288 -285 287 0
288 -285 136 0
-288 285 287 0
-288 285 136 0
288 -285 135 -138 0
288 -285 -135 138 0
-288 285 135 -138 0
-288 285 -135 138 0
288 285 -287 135 138 -136 0
288 285 -287 -135 -138 -136 0
-288 -285 -287 135 138 -136 0
-288 -285 -287 -135 -138 -136 0
290 287 -135 0
290 -287 135 0
-290 287 135 0
-290 -287 -135 0
289 138 -136 0
289 -138 136 0
-289 138 136 0
-289 -138 -136 0
291 -288 290 0
291 -288 134 0
-291 288 290 0
-291 288 134 0
291 -288 133 -136 0
291 -288 -133 136 0
-291 288 133 -136 0
-291 288 -133 136 0
291 288 -290 133 136 -134 0
291 288 -290 -133 -136 -134 0
-291 -288 -290 133 136 -134 0
-291 -288 -290 -133 -136 -134 0
293 290 -133 0
293 -290 133 0
-293 290 133 0
-293 -290 -133 0
292 136 -134 0
292 -136 134 0
-292 136 134 0
-292 -136 -134 0
294 -291 293 0
294 -291 132 0
-294 291 293 0
-294 291 132 0
294 -291 131 -134 0
294 -291 -131 134 0
-294 291 131 -134 0
-294 291 -131 134 0
294 291 -293 131 134 -132 0
294 291 -293 -131 -134 -132 0
-294 -291 -293 131 134 -132 0
-294 -291 -293 -131 -134 -132 0
296 293 -131 0
296 -293 131 0
-296 293 131 0
-296 -293 -131 0
295 134 -132 0
295 -134 132 0
-295 134 132 0
-295 -134 -132 0
297 -294 296 0
297 -294 130 0
-297 294 296 0
-297 294 130 0
297 -294 129 -132 0
297 -294 -129 132 0
-297 294 129 -132 0
-297 294 -129 132 0
297 294 -296 129 132 -130 0
297 294 -296 -129 -132 -130 0
-297 -294 -296 129 132 -130 0
-297 -294 -296 -129 -132 -130 0
299 296 -129 0
299 -296 129 0
-299 296 129 0
-299 -296 -129 0
298 132 -130 0
298 -132 130 0
-298 132 130 0
-298 -132 -130 0
300 -297 299 0
300 -297 128 0
-300 297 299 0
-300 297 128 0
300 -297 127 -130 0
300 -297 -127 130 0
-300 297 127 -130 0
-300 297 -127 130 0
300 297 -299 127 130 -128 0
300 297 -299 -127 -130 -128 0
-300 -297 -299 127 130 -128 0
-300 -297 -299 -127 -130 -128 0
302 299 -127 0
302 -299 127 0
-302 299 127 0
-302 -299 -127 0
301 130 -128 0
301 -130 128 0
-301 130 128 0
-301 -130 -128 0
303 -300 302 0
303 -300 126 0
-303 300 302 0
-303 300 126 0
303 -300 125 -128 0
303 -300 -125 128 0
-303 300 125 -128 0
-303 300 -125 128 0
303 300 -302 125 128 -126 0
303 300 -302 -125 -128 -126 0
-303 -300 -302 125 128 -126 0
-303 -300 -302 -125 -128 -126 0
305 302 -125 0
305 -302 125 0
-305 302 125 0
-305 -302 -125 0
304 128 -126 0
304 -128 126 0
-304 128 126 0
-304 -128 -126 0
306 -303 305 0
306 -303 124 0
-306 303 305 0
-306 303 124 0
306 -303 123 -126 0
306 -303 -123 126 0
-306 303 123 -126 0
-306 303 -123 126 0
306 303 -305 123 126 -124 0
306 303 -305 -123 -126 -124 0
-306 -303 -305 123 126 -124 0
-306 -303 -305 -123 -126 -124 0
308 305 -123 0
308 -305 123 0
-308 305 123 0
-308 -305 -123 0
307 126 -124 0
307 -126 124 0
-307 126 124 0
-307 -126 -124 0
309 -306 308 0
309 -306 122 0
-309 306 308 0
-309 306 122 0
309 -306 121 -124 0
309 -306 -121 124 0
-309 306 121 -124 0
-309 306 -121 124 0
309 306 -308 121 124 -122 0
309 306 -308 -121 -124 -122 0
-309 -306 -308 121 124 -122 0
-309 -306 -308 -121 -124 -122 0
311 308 -121 0
311 -308 121 0
-311 308 121 0
-311 -308 -121 0
310 124 -122 0
310 -124 122 0
-310 124 122 0
-310 -124 -122 0
312 -309 311 0
312 -309 120 0
-312 309 311 0
-312 309 120 0
312 -309 119 -122 0
312 -309 -119 122 0
-312 309 119 -122 0
-312 309 -119 122 0
312 309 -311 119 122 -120 0
312 309 -311 -119 -122 -120 0
-312 -309 -311 119 122 -120 0
-312 -309 -311 -119 -122 -120 0
314 311 -119 0
314 -311 119 0
-314 311 119 0
-314 -311 -119 0
313 122 -120 0
313 -122 120 0
-313 122 120 0
-313 -122 -120 0
315 -312 314 0
315 -312 118 0
-315 312 314 0
-315 312 118 0
315 -312 117 -120 0
315 -312 -117 120 0
-315 312 117 -120 0
-315 312 -117 120 0
315 312 -314 117 120 -118 0
315 312 -314 -117 -120 -118 0
-315 -312 -314 117 120 -118 0
-315 -312 -314 -117 -120 -118 0
317 314 -117 0
317 -314 117 0
-317 314 117 0
-317 -314 -117 0
316 120 -118 0
316 -120 118 0
-316 120 118 0
-316 -120 -118 0
318 -315 317 0
318 -315 116 0
-318 315 317 0
-318 315 116 0
318 -315 115 -118 0
318 -315 -115 118 0
-318 315 115 -118 0
-318 315 -115 118 0
318 315 -317 115 118 -116 0
318 315 -317 -115 -118 -116 0
-318 -315 -317 115 118 -116 0
-318 -315 -317 -115 -118 -116 0
320 317 -115 0
320 -317 115 0
-320 317 115 0
-320 -317 -115 0
319 118 -116 0
319 -118 116 0
-319 118 116 0
-319 -118 -116 0
321 -318 320 0
321 -318 114 0
-321 318 320 0
-321 318 114 0
321 -318 113 -116 0
321 -318 -113 116 0
-321 318 113 -116 0
-321 318 -113 116 0
321 318 -320 113 116 -114 0
321 318 -320 -113 -116 -114 0
-321 -318 -320 113 116 -114 0
-321 -318 -320 -113 -116 -114 0
323 320 -113 0
323 -320 113 0
-323 320 113 0
-323 -320 -113 0
322 116 -114 0
322 -116 114 0
-322 116 114 0
-322 -116 -114 0
324 -321 323 0
324 -321 112 0
-324 321 323 0
-324 321 112 0
324 -321 111 -114 0
324 -321 -111 114 0
-324 321 111 -114 0
-324 321 -111 114 0
324 321 -323 111 114 -112 0
324 321 -323 -111 -114 -112 0
-324 -321 -323 111 114 -112 0
-324 -321 -323 -111 -114 -112 0
326 323 -111 0
326 -323 111 0
-326 323 111 0
-326 -323 -111 0
325 114 -112 0
325 -114 112 0
-325 114 112 0
-325 -114 -112 0
327 -324 326 0
327 -324 110 0
-327 324 326 0
-327 324 110 0
327 -324 109 -112 0
327 -324 -109 112 0
-327 324 109 -112 0
-327 324 -109 112 0
327 324 -326 109 112 -110 0
327 324 -326 -109 -112 -110 0
-327 -324 -326 109 112 -110 0
-327 -324 -326 -109 -112 -110 0
329 326 -109 0
329 -326 109 0
-329 326 109 0
-329 -326 -109 0
328 112 -110 0
328 -112 110 0
-328 112 110 0
-328 -112 -110 0
330 -327 329 0
330 -327 108 0
-330 327 329 0
-330 327 108 0
330 -327 107 -110 0
330 -327 -107 110 0
-330 327 107 -110 0
-330 327 -107 110 0
330 327 -329 107 110 -108 0
330 327 -329 -107 -110 -108 0
-330 -327 -329 107 110 -108 0
-330 -327 -329 -107 -110 -108 0
332 329 -107 0
332 -329 107 0
-332 329 107 0
-332 -329 -107 0
331 110 -108 0
331 -110 108 0
-331 110 108 0
-331 -110 -108 0
333 -330 332 0
333 -330 106 0
-333 330 332 0
-333 330 106 0
333 -330 105 -108 0
333 -330 -105 108 0
-333 330 105 -108 0
-333 330 -105 108 0
333 330 -332 105 108 -106 0
333 330 -332 -105 -108 -106 0
-333 -330 -332 105 108 -106 0
-333 -330 -332 -105 -108 -106 0
335 332 -105 0
335 -332 105 0
-335 332 105 0
-335 -332 -105 0
334 108 -106 0
334 -108 106 0
-334 108 106 0
-334 -108 -106 0
336 -333 335 0
336 -333 104 0
-336 333 335 0
-336 333 104 0
336 -333 103 -106 0
336 -333 -103 106 0
-336 333 103 -106 0
-336 333 -103 106 0
336 333 -335 103 106 -104 0
336 333 -335 -103 -106 -104 0
-336 -333 -335 103 106 -104 0
-336 -333 -335 -103 -106 -104 0
338 335 -103 0
338 -335 103 0
-338 335 103 0
-338 -335 -103 0
337 106 -104 0
337 -106 104 0
-337 106 104 0
-337 -106 -104 0
339 -336 338 0
339 -336 102 0
-339 336 338 0
-339 336 102 0
339 -336 101 -104 0
339 -336 -101 104 0
-339 336 101 -104 0
-339 336 -101 104 0
339 336 -338 101 104 -102 0
339 336 -338 -101 -104 -102 0
-339 -336 -338 101 104 -102 0
-339 -336 -338 -101 -104 -102 0
341 338 -101 0
341 -338 101 0
-341 338 101 0
-341 -338 -101 0
340 104 -102 0
340 -104 102 0
-340 104 102 0
-340 -104 -102 0
342 -339 341 0
342 -339 100 0
-342 339 341 0
-342 339 100 0
342 -339 99 -102 0
342 -339 -99 102 0
-342 339 99 -102 0
-342 339 -99 102 0
342 339 -341 99 102 -100 0
342 339 -341 -99 -102 -100 0
-342 -339 -341 99 102 -100 0
-342 -339 -341 -99 -102 -100 0
344 341 -99 0
344 -341 99 0
-344 341 99 0
-344 -341 -99 0
343 102 -100 0
343 -102 100 0
-343 102 100 0
-343 -102 -100 0
345 -342 344 0
345 -342 98 0
-345 342 344 0
-345 342 98 0
345 -342 97 -100 0
345 -342 -97 100 0
-345 342 97 -100 0
-345 342 -97 100 0
345 342 -344 97 100 -98 0
345 342 -344 -97 -100 -98 0
-345 -342 -344 97 100 -98 0
-345 -342 -344 -97 -100 -98 0
347 344 -97 0
347 -344 97 0
-347 344 97 0
-347 -344 -97 0
346 100 -98 0
346 -100 98 0
-346 100 98 0
-346 -100 -98 0
348 -345 347 0
348 -345 96 0
-348 345 347 0
-348 345 96 0
348 -345 95 -98 0
348 -345 -95 98 0
-348 345 95 -98 0
-348 345 -95 98 0
348 345 -347 95 98 -96 0
348 345 -347 -95 -98 -96 0
-348 -345 -347 95 98 -96 0
-348 -345 -347 -95 -98 -96 0
350 347 -95 0
350 -347 95 0
-350 347 95 0
-350 -347 -95 0
349 98 -96 0
349 -98 96 0
-349 98 96 0
-349 -98 -96 0
351 -348 350 0
351 -348 94 0
-351 348 350 0
-351 348 94 0
351 -348 93 -96 0
351 -348 -93 96 0
-351 348 93 -96 0
-351 348 -93 96 0
351 348 -350 93 96 -94 0
351 348 -350 -93 -96 -94 0
-351 -348 -350 93 96 -94 0
-351 -348 -350 -93 -96 -94 0
353 350 -93 0
353 -350 93 0
-353 350 93 0
-353 -350 -93 0
352 96 -94 0
352 -96 94 0
-352 96 94 0
-352 -96 -94 0
354 -351 353 0
354 -351 92 0
-354 351 353 0
-354 351 92 0
354 -351 91 -94 0
354 -351 -91 94 0
-354 351 91 -94 0
-354 351 -91 94 0
354 351 -353 91 94 -92 0
354 351 -353 -91 -94 -92 0
-354 -351 -353 91 94 -92 0
-354 -351 -353 -91 -94 -92 0
356 353 -91 0
356 -353 91 0
-356 353 91 0
-356 -353 -91 0
355 94 -92 0
355 -94 92 0
-355 94 92 0
-355 -94 -92 0
357 -354 356 0
357 -354 90 0
-357 354 356 0
-357 354 90 0
357 -354 89 -92 0
357 -354 -89 92 0
-357 354 89 -92 0
-357 354 -89 92 0
357 354 -356 89 92 -90 0
357 354 -356 -89 -92 -90 0
-357 -354 -356 89 92 -90 0
-357 -354 -356 -89 -92 -90 0
359 356 -89 0
359 -356 89 0
-359 356 89 0
-359 -356 -89 0
358 92 -90 0
358 -92 90 0
-358 92 90 0
-358 -92 -90 0
360 -357 359 0
360 -357 88 0
-360 357 359 0
-360 357 88 0
360 -357 87 -90 0
360 -357 -87 90 0
-360 357 87 -90 0
-360 357 -87 90 0
360 357 -359 87 90 -88 0
360 357 -359 -87 -90 -88 0
-360 -357 -359 87 90 -88 0
-360 -357 -359 -87 -90 -88 0
362 359 -87 0
362 -359 87 0
-362 359 87 0
-362 -359 -87 0
361 90 -88 0
361 -90 88 0
-361 90 88 0
-361 -90 -88 0
363 -360 362 0
363 -360 86 0
-363 360 362 0
-363 360 86 0
363 -360 85 -88 0
363 -360 -85 88 0
-363 360 85 -88 0
-363 360 -85 88 0
363 360 -362 85 88 -86 0
363 360 -362 -85 -88 -86 0
-363 -360 -362 85 88 -86 0
-363 -360 -362 -85 -88 -86 0
365 362 -85 0
365 -362 85 0
-365 362 85 0
-365 -362 -85 0
364 88 -86 0
364 -88 86 0
-364 88 86 0
-364 -88 -86 0
366 -363 365 0
366 -363 84 0
-366 363 365 0
-366 363 84 0
366 -363 83 -86 0
366 -363 -83 86 0
-366 363 83 -86 0
-366 363 -83 86 0
366 363 -365 83 86 -84 0
366 363 -365 -83 -86 -84 0
-366 -363 -365 83 86 -84 0
-366 -363 -365 -83 -86 -84 0
368 365 -83 0
368 -365 83 0
-368 365 83 0
-368 -365 -83 0
367 86 -84 0
367 -86 84 0
-367 86 84 0
-367 -86 -84 0
369 -366 368 0
369 -366 82 0
-369 366 368 0
-369 366 82 0
369 -366 81 -84 0
369 -366 -81 84 0
-369 366 81 -84 0
-369 366 -81 84 0
369 366 -368 81 84 -82 0
369 366 -368 -81 -84 -82 0
-369 -366 -368 81 84 -82 0
-369 -366 -368 -81 -84 -82 0
371 368 -81 0
371 -368 81 0
-371 368 81 0
-371 -368 -81 0
370 84 -82 0
370 -84 82 0
-370 84 82 0
-370 -84 -82 0
372 -369 371 0
372 -369 80 0
-372 369 371 0
-372 369 80 0
372 -369 79 -82 0
372 -369 -79 82 0
-372 369 79 -82 0
-372 369 -79 82 0
372 369 -371 79 82 -80 0
372 369 -371 -79 -82 -80 0
-372 -369 -371 79 82 -80 0
-372 -369 -371 -79 -82 -80 0
374 371 -79 0
374 -371 79 0
-374 371 79 0
-374 -371 -79 0
373 82 -80 0
373 -82 80 0
-373 82 80 0
-373 -82 -80 0
375 -372 374 0
375 -372 78 0
-375 372 374 0
-375 372 78 0
375 -372 77 -80 0
375 -372 -77 80 0
-375 372 77 -80 0
-375 372 -77 80 0
375 372 -374 77 80 -78 0
375 372 -374 -77 -80 -78 0
-375 -372 -374 77 80 -78 0
-375 -372 -374 -77 -80 -78 0
377 374 -77 0
377 -374 77 0
-377 374 77 0
-377 -374 -77 0
376 80 -78 0
376 -80 78 0
-376 80 78 0
-376 -80 -78 0
378 -375 377 0
378 -375 76 0
-378 375 377 0
-378 375 76 0
378 -375 75 -78 0
378 -375 -75 78 0
-378 375 75 -78 0
-378 375 -75 78 0
378 375 -377 75 78 -76 0
378 375 -377 -75 -78 -76 0
-378 -375 -377 75 78 -76 0
-378 -375 -377 -75 -78 -76 0
380 377 -75 0
380 -377 75 0
-380 377 75 0
-380 -377 -75 0
379 78 -76 0
379 -78 76 0
-379 78 76 0
-379 -78 -76 0
381 -378 380 0
381 -378 74 0
-381 378 380 0
-381 378 74 0
381 -378 73 -76 0
381 -378 -73 76 0
-381 378 73 -76 0
-381 378 -73 76 0
381 378 -380 73 76 -74 0
381 378 -380 -73 -76 -74 0
-381 -378 -380 73 76 -74 0
-381 -378 -380 -73 -76 -74 0
383 380 -73 0
383 -380 73 0
-383 380 73 0
-383 -380 -73 0
382 76 -74 0
382 -76 74 0
-382 76 74 0
-382 -76 -74 0
384 -381 383 0
384 -381 72 0
-384 381 383 0
-384 381 72 0
384 -381 71 -74 0
384 -381 -71 74 0
-384 381 71 -74 0
-384 381 -71 74 0
384 381 -383 71 74 -72 0
384 381 -383 -71 -74 -72 0
-384 -381 -383 71 74 -72 0
-384 -381 -383 -71 -74 -72 0
386 383 -71 0
386 -383 71 0
-386 383 71 0
-386 -383 -71 0
385 74 -72 0
385 -74 72 0
-385 74 72 0
-385 -74 -72 0
387 -384 386 0
387 -384 70 0
-387 384 386 0
-387 384 70 0
387 -384 69 -72 0
387 -384 -69 72 0
-387 384 69 -72 0
-387 384 -69 72 0
387 384 -386 69 72 -70 0
387 384 -386 -69 -72 -70 0
-387 -384 -386 69 72 -70 0
-387 -384 -386 -69 -72 -70 0
389 386 -69 0
389 -386 69 0
-389 386 69 0
-389 -386 -69 0
388 72 -70 0
388 -72 70 0
-388 72 70 0
-388 -72 -70 0
390 -387 389 0
390 -387 68 0
-390 387 389 0
-390 387 68 0
390 -387 67 -70 0
390 -387 -67 70 0
-390 387 67 -70 0
-390 387 -67 70 0
390 387 -389 67 70 -68 0
390 387 -389 -67 -70 -68 0
-390 -387 -389 67 70 -68 0
-390 -387 -389 -67 -70 -68 0
392 389 -67 0
392 -389 67 0
-392 389 67 0
-392 -389 -67 0
391 70 -68 0
391 -70 68 0
-391 70 68 0
-391 -70 -68 0
393 -390 392 0
393 -390 66 0
-393 390 392 0
-393 390 66 0
393 -390 65 -68 0
393 -390 -65 68 0
-393 390 65 -68 0
-393 390 -65 68 0
393 390 -392 65 68 -66 0
393 390 -392 -65 -68 -66 0
-393 -390 -392 65 68 -66 0
-393 -390 -392 -65 -68 -66 0
395 392 -65 0
395 -392 65 0
-395 392 65 0
-395 -392 -65 0
394 68 -66 0
394 -68 66 0
-394 68 66 0
-394 -68 -66 0
396 -393 395 0
396 -393 64 0
-396 393 395 0
-396 393 64 0
396 -393 63 -66 0
396 -393 -63 66 0
-396 393 63 -66 0
-396 393 -63 66 0
396 393 -395 63 66 -64 0
396 393 -395 -63 -66 -64 0
-396 -393 -395 63 66 -64 0
-396 -393 -395 -63 -66 -64 0
398 395 -63 0
398 -395 63 0
-398 395 63 0
-398 -395 -63 0
397 66 -64 0
397 -66 64 0
-397 66 64 0
-397 -66 -64 0
399 -396 398 0
399 -396 62 0
-399 396 398 0
-399 396 62 0
399 -396 61 -64 0
399 -396 -61 64 0
-399 396 61 -64 0
-399 396 -61 64 0
399 396 -398 61 64 -62 0
399 396 -398 -61 -64 -62 0
-399 -396 -398 61 64 -62 0
-399 -396 -398 -61 -64 -62 0
401 398 -61 0
401 -398 61 0
-401 398 61 0
-401 -398 -61 0
400 64 -62 0
400 -64 62 0
-400 64 62 0
-400 -64 -62 0
402 -399 401 0
402 -399 60 0
-402 399 401 0
-402 399 60 0
402 -399 59 -62 0
402 -399 -59 62 0
-402 399 59 -62 0
-402 399 -59 62 0
402 399 -401 59 62 -60 0
402 399 -401 -59 -62 -60 0
-402 -399 -401 59 62 -60 0
-402 -399 -401 -59 -62 -60 0
404 401 -59 0
404 -401 59 0
-404 401 59 0
-404 -401 -59 0
403 62 -60 0
403 -62 60 0
-403 62 60 0
-403 -62 -60 0
405 -402 404 0
405 -402 58 0
-405 402 404 0
-405 402 58 0
405 -402 57 -60 0
405 -402 -57 60 0
-405 402 57 -60 0
-405 402 -57 60 0
405 402 -404 57 60 -58 0
405 402 -404 -57 -60 -58 0
-405 -402 -404 57 60 -58 0
-405 -402 -404 -57 -60 -58 0
407 404 -57 0
407 -404 57 0
-407 404 57 0
-407 -404 -57 0
406 60 -58 0
406 -60 58 0
-406 60 58 0
-406 -60 -58 0
408 -405 407 0
408 -405 56 0
-408 405 407 0
-408 405 56 0
408 -405 55 -58 0
408 -405 -55 58 0
-408 405 55 -58 0
-408 405 -55 58 0
408 405 -407 55 58 -56 0
408 405 -407 -55 -58 -56 0
-408 -405 -407 55 58 -56 0
-408 -405 -407 -55 -58 -56 0
410 407 -55 0
410 -407 55 0
-410 407 55 0
-410 -407 -55 0
409 58 -56 0
409 -58 56 0
-409 58 56 0
-409 -58 -56 0
411 -408 410 0
411 -408 54 0
-411 408 410 0
-411 408 54 0
411 -408 53 -56 0
411 -408 -53 56 0
-411 408 53 -56 0
-411 408 -53 56 0
411 408 -410 53 56 -54 0
411 408 -410 -53 -56 -54 0
-411 -408 -410 53 56 -54 0
-411 -408 -410 -53 -56 -54 0
413 410 -53 0
413 -410 53 0
-413 410 53 0
-413 -410 -53 0
412 56 -54 0
412 -56 54 0
-412 56 54 0
-412 -56 -54 0
414 -411 413 0
414 -411 52 0
-414 411 413 0
-414 411 52 0
414 -411 51 -54 0
414 -411 -51 54 0
-414 411 51 -54 0
-414 411 -51 54 0
414 411 -413 51 54 -52 0
414 411 -413 -51 -54 -52 0
-414 -411 -413 51 54 -52 0
-414 -411 -413 -51 -54 -52 0
416 413 -51 0
416 -413 51 0
-416 413 51 0
-416 -413 -51 0
415 54 -52 0
415 -54 52 0
-415 54 52 0
-415 -54 -52 0
417 -414 416 0
417 -414 50 0
-417 414 416 0
-417 414 50 0
417 -414 49 -52 0
417 -414 -49 52 0
-417 414 49 -52 0
-417 414 -49 52 0
417 414 -416 49 52 -50 0
417 414 -416 -49 -52 -50 0
-417 -414 -416 49 52 -50 0
-417 -414 -416 -49 -52 -50 0
419 416 -49 0
419 -416 49 0
-419 416 49 0
-419 -416 -49 0
418 52 -50 0
418 -52 50 0
-418 52 50 0
-418 -52 -50 0
420 -417 419 0
420 -417 48 0
-420 417 419 0
-420 417 48 0
420 -417 47 -50 0
420 -417 -47 50 0
-420 417 47 -50 0
-420 417 -47 50 0
420 417 -419 47 50 -48 0
420 417 -419 -47 -50 -48 0
-420 -417 -419 47 50 -48 0
-420 -417 -419 -47 -50 -48 0
422 419 -47 0
422 -419 47 0
-422 419 47 0
-422 -419 -47 0
421 50 -48 0
421 -50 48 0
-421 50 48 0
-421 -50 -48 0
423 -420 422 0
423 -420 46 0
-423 420 422 0
-423 420 46 0
423 -420 45 -48 0
423 -420 -45 48 0
-423 420 45 -48 0
-423 420 -45 48 0
423 420 -422 45 48 -46 0
423 420 -422 -45 -48 -46 0
-423 -420 -422 45 48 -46 0
-423 -420 -422 -45 -48 -46 0
425 422 -45 0
425 -422 45 0
-425 422 45 0
-425 -422 -45 0
424 48 -46 0
424 -48 46 0
-424 48 46 0
-424 -48 -46 0
426 -423 425 0
426 -423 44 0
-426 423 425 0
-426 423 44 0
426 -423 43 -46 0
426 -423 -43 46 0
-426 423 43 -46 0
-426 423 -43 46 0
426 423 -425 43 46 -44 0
426 423 -425 -43 -46 -44 0
-426 -423 -425 43 46 -44 0
-426 -423 -425 -43 -46 -44 0
428 425 -43 0
428 -425 43 0
-428 425 43 0
-428 -425 -43 0
427 46 -44 0
427 -46 44 0
-427 46 44 0
-427 -46 -44 0
429 -426 428 0
429 -426 42 0
-429 426 428 0
-429 426 42 0
429 -426 41 -44 0
429 -426 -41 44 0
-429 426 41 -44 0
-429 426 -41 44 0
429 426 -428 41 44 -42 0
429 426 -428 -41 -44 -42 0
-429 -426 -428 41 44 -42 0
-429 -426 -428 -41 -44 -42 0
431 428 -41 0
431 -428 41 0
-431 428 41 0
-431 -428 -41 0
430 44 -42 0
430 -44 42 0
-430 44 42 0
-430 -44 -42 0
432 -429 431 0
432 -429 40 0
-432 429 431 0
-432 429 40 0
432 -429 39 -42 0
432 -429 -39 42 0
-432 429 39 -42 0
-432 429 -39 42 0
432 429 -431 39 42 -40 0
432 429 -431 -39 -42 -40 0
-432 -429 -431 39 42 -40 0
-432 -429 -431 -39 -42 -40 0
434 431 -39 0
434 -431 39 0
-434 431 39 0
-434 -431 -39 0
433 42 -40 0
433 -42 40 0
-433 42 40 0
-433 -42 -40 0
435 -432 434 0
435 -432 38 0
-435 432 434 0
-435 432 38 0
435 -432 37 -40 0
435 -432 -37 40 0
-435 432 37 -40 0
-435 432 -37 40 0
435 432 -434 37 40 -38 0
435 432 -434 -37 -40 -38 0
-435 -432 -434 37 40 -38 0
-435 -432 -434 -37 -40 -38 0
437 434 -37 0
437 -434 37 0
-437 434 37 0
-437 -434 -37 0
436 40 -38 0
436 -40 38 0
-436 40 38 0
-436 -40 -38 0
438 -435 437 0
438 -435 36 0
-438 435 437 0
-438 435 36 0
438 -435 35 -38 0
438 -435 -35 38 0
-438 435 35 -38 0
-438 435 -35 38 0
438 435 -437 35 38 -36 0
438 435 -437 -35 -38 -36 0
-438 -435 -437 35 38 -36 0
-438 -435 -437 -35 -38 -36 0
440 437 -35 0
440 -437 35 0
-440 437 35 0
-440 -437 -35 0
439 38 -36 0
439 -38 36 0
-439 38 36 0
-439 -38 -36 0
441 -438 440 0
441 -438 34 0
-441 438 440 0
-441 438 34 0
441 -438 33 -36 0
441 -438 -33 36 0
-441 438 33 -36 0
-441 438 -33 36 0
441 438 -440 33 36 -34 0
441 438 -440 -33 -36 -34 0
-441 -438 -440 33 36 -34 0
-441 -438 -440 -33 -36 -34 0
443 440 -33 0
443 -440 33 0
-443 440 33 0
-443 -440 -33 0
442 36 -34 0
442 -36 34 0
-442 36 34 0
-442 -36 -34 0
444 -441 443 0
444 -441 32 0
-444 441 443 0
-444 441 32 0
444 -441 31 -34 0
444 -441 -31 34 0
-444 441 31 -34 0
-444 441 -31 34 0
444 441 -443 31 34 -32 0
444 441 -443 -31 -34 -32 0
-444 -441 -443 31 34 -32 0
-444 -441 -443 -31 -34 -32 0
446 443 -31 0
446 -443 31 0
-446 443 31 0
-446 -443 -31 0
445 34 -32 0
445 -34 32 0
-445 34 32 0
-445 -34 -32 0
447 -444 446 0
447 -444 30 0
-447 444 446 0
-447 444 30 0
447 -444 29 -32 0
447 -444 -29 32 0
-447 444 29 -32 0
-447 444 -29 32 0
447 444 -446 29 32 -30 0
447 444 -446 -29 -32 -30 0
-447 -444 -446 29 32 -30 0
-447 -444 -446 -29 -32 -30 0
449 446 -29 0
449 -446 29 0
-449 446 29 0
-449 -446 -29 0
448 32 -30 0
448 -32 30 0
-448 32 30 0
-448 -32 -30 0
450 -447 449 0
450 -447 28 0
-450 447 449 0
-450 447 28 0
450 -447 27 -30 0
450 -447 -27 30 0
-450 447 27 -30 0
-450 447 -27 30 0
450 447 -449 27 30 -28 0
450 447 -449 -27 -30 -28 0
-450 -447 -449 27 30 -28 0
-450 -447 -449 -27 -30 -28 0
452 449 -27 0
452 -449 27 0
-452 449 27 0
-452 -449 -27 0
451 30 -28 0
451 -30 28 0
-451 30 28 0
-451 -30 -28 0
453 -450 452 0
453 -450 26 0
-453 450 452 0
-453 450 26 0
453 -450 25 -28 0
453 -450 -25 28 0
-453 450 25 -28 0
-453 450 -25 28 0
453 450 -452 25 28 -26 0
453 450 -452 -25 -28 -26 0
-453 -450 -452 25 28 -26 0
-453 -450 -452 -25 -28 -26 0
455 452 -25 0
455 -452 25 0
-455 452 25 0
-455 -452 -25 0
454 28 -26 0
454 -28 26 0
-454 28 26 0
-454 -28 -26 0
456 -453 455 0
456 -453 24 0
-456 453 455 0
-456 453 24 0
456 -453 23 -26 0
456 -453 -23 26 0
-456 453 23 -26 0
-456 453 -23 26 0
456 453 -455 23 26 -24 0
456 453 -455 -23 -26 -24 0
-456 -453 -455 23 26 -24 0
-456 -453 -455 -23 -26 -24 0
458 455 -23 0
458 -455 23 0
-458 455 23 0
-458 -455 -23 0
457 26 -24 0
457 -26 24 0
-457 26 24 0
-457 -26 -24 0
459 -456 458 0
459 -456 22 0
-459 456 458 0
-459 456 22 0
459 -456 21 -24 0
459 -456 -21 24 0
-459 456 21 -24 0
-459 456 -21 24 0
459 456 -458 21 24 -22 0
459 456 -458 -21 -24 -22 0
-459 -456 -458 21 24 -22 0
-459 -456 -458 -21 -24 -22 0
461 458 -21 0
461 -458 21 0
-461 458 21 0
-461 -458 -21 0
460 24 -22 0
460 -24 22 0
-460 24 22 0
-460 -24 -22 0
462 -459 461 0
462 -459 20 0
-462 459 461 0
-462 459 20 0
462 -459 19 -22 0
462 -459 -19 22 0
-462 459 19 -22 0
-462 459 -19 22 0
462 459 -461 19 22 -20 0
462 459 -461 -19 -22 -20 0
-462 -459 -461 19 22 -20 0
-462 -459 -461 -19 -22 -20 0
464 461 -19 0
464 -461 19 0
-464 461 19 0
-464 -461 -19 0
463 22 -20 0
463 -22 20 0
-463 22 20 0
-463 -22 -20 0
465 -462 464 0
465 -462 18 0
-465 462 464 0
-465 462 18 0
465 -462 17 -20 0
465 -462 -17 20 0
-465 462 17 -20 0
-465 462 -17 20 0
465 462 -464 17 20 -18 0
465 462 -464 -17 -20 -18 0
-465 -462 -464 17 20 -18 0
-465 -462 -464 -17 -20 -18 0
467 464 -17 0
467 -464 17 0
-467 464 17 0
-467 -464 -17 0
466 20 -18 0
466 -20 18 0
-466 20 18 0
-466 -20 -18 0
468 -465 467 0
468 -465 16 0
-468 465 467 0
-468 465 16 0
468 -465 15 -18 0
468 -465 -15 18 0
-468 465 15 -18 0
-468 465 -15 18 0
468 465 -467 15 18 -16 0
468 465 -467 -15 -18 -16 0
-468 -465 -467 15 18 -16 0
-468 -465 -467 -15 -18 -16 0
470 467 -15 0
470 -467 15 0
-470 467 15 0
-470 -467 -15 0
469 18 -16 0
469 -18 16 0
-469 18 16 0
-469 -18 -16 0
471 -468 470 0
471 -468 14 0
-471 468 470 0
-471 468 14 0
471 -468 13 -16 0
471 -468 -13 16 0
-471 468 13 -16 0
-471 468 -13 16 0
471 468 -470 13 16 -14 0
471 468 -470 -13 -16 -14 0
-471 -468 -470 13 16 -14 0
-471 -468 -470 -13 -16 -14 0
473 470 -13 0
473 -470 13 0
-473 470 13 0
-473 -470 -13 0
472 16 -14 0
472 -16 14 0
-472 16 14 0
-472 -16 -14 0
474 -471 473 0
474 -471 12 0
-474 471 473 0
-474 471 12 0
474 -471 11 -14 0
474 -471 -11 14 0
-474 471 11 -14 0
-474 471 -11 14 0
474 471 -473 11 14 -12 0
474 471 -473 -11 -14 -12 0
-474 -471 -473 11 14 -12 0
-474 -471 -473 -11 -14 -12 0
476 473 -11 0
476 -473 11 0
-476 473 11 0
-476 -473 -11 0
475 14 -12 0
475 -14 12 0
-475 14 12 0
-475 -14 -12 0
477 -474 476 0
477 -474 10 0
-477 474 476 0
-477 474 10 0
477 -474 9 -12 0
477 -474 -9 12 0
-477 474 9 -12 0
-477 474 -9 12 0
477 474 -476 9 12 -10 0
477 474 -476 -9 -12 -10 0
-477 -474 -476 9 12 -10 0
-477 -474 -476 -9 -12 -10 0
479 476 -9 0
479 -476 9 0
-479 476 9 0
-479 -476 -9 0
478 12 -10 0
478 -12 10 0
-478 12 10 0
-478 -12 -10 0
480 -477 479 0
480 -477 8 0
-480 477 479 0
-480 477 8 0
480 -477 7 -10 0
480 -477 -7 10 0
-480 477 7 -10 0
-480 477 -7 10 0
480 477 -479 7 10 -8 0
480 477 -479 -7 -10 -8 0
-480 -477 -479 7 10 -8 0
-480 -477 -479 -7 -10 -8 0
482 479 -7 0
482 -479 7 0
-482 479 7 0
-482 -479 -7 0
481 10 -8 0
481 -10 8 0
-481 10 8 0
-481 -10 -8 0
483 -480 482 0
483 -480 6 0
-483 480 482 0
-483 480 6 0
483 -480 5 -8 0
483 -480 -5 8 0
-483 480 5 -8 0
-483 480 -5 8 0
483 480 -482 5 8 -6 0
483 480 -482 -5 -8 -6 0
-483 -480 -482 5 8 -6 0
-483 -480 -482 -5 -8 -6 0
485 482 -5 0
485 -482 5 0
-485 482 5 0
-485 -482 -5 0
484 8 -6 0
484 -8 6 0
-484 8 6 0
-484 -8 -6 0
486 -483 485 0
486 -483 4 0
-486 483 485 0
-486 483 4 0
486 -483 3 -6 0
486 -483 -3 6 0
-486 483 3 -6 0
-486 483 -3 6 0
486 483 -485 3 6 -4 0
486 483 -485 -3 -6 -4 0
-486 -483 -485 3 6 -4 0
-486 -483 -485 -3 -6 -4 0
488 485 -3 0
488 -485 3 0
-488 485 3 0
-488 -485 -3 0
487 6 -4 0
487 -6 4 0
-487 6 4 0
-487 -6 -4 0
489 -486 488 0
489 -486 2 0
-489 486 488 0
-489 486 2 0
489 -486 1 -4 0
489 -486 -1 4 0
-489 486 1 -4 0
-489 486 -1 4 0
489 486 -488 1 4 -2 0
489 486 -488 -1 -4 -2 0
-489 -486 -488 1 4 -2 0
-489 -486 -488 -1 -4 -2 0
491 488 -1 0
491 -488 1 0
-491 488 1 0
-491 -488 -1 0
490 4 -2 0
490 -4 2 0
-490 4 2 0
-490 -4 -2 0
-491 0
-488 0
-490 0
-485 0
-487 0
-482 0
-484 0
-479 0
-481 0
-476 0
-478 0
-473 0
-475 0
-470 0
-472 0
-467 0
-469 0
-464 0
-466 0
-461 0
-463 0
-458 0
-460 0
-455 0
-457 0
-452 0
-454 0
-449 0
-451 0
-446 0
-448 0
-443 0
-445 0
-440 0
-442 0
-437 0
-439 0
-434 0
-436 0
-431 0
-433 0
-428 0
-430 0
-425 0
-427 0
-422 0
-424 0
-419 0
-421 0
-416 0
-418 0
-413 0
-415 0
-410 0
-412 0
-407 0
-409 0
-404 0
-406 0
-401 0
-403 0
-398 0
-400 0
-395 0
-397 0
-392 0
-394 0
-389 0
-391 0
-386 0
-388 0
-383 0
-385 0
-380 0
-382 0
-377 0
-379 0
-374 0
-376 0
-371 0
-373 0
-368 0
-370 0
-365 0
-367 0
-362 0
-364 0
-359 0
-361 0
-356 0
-358 0
-353 0
-355 0
-350 0
-352 0
-347 0
-349 0
-344 0
-346 0
-341 0
-343 0
-338 0
-340 0
-335 0
-337 0
-332 0
-334 0
-329 0
-331 0
-326 0
-328 0
-323 0
-325 0
-320 0
-322 0
-317 0
-319 0
-314 0
-316 0
-311 0
-313 0
-308 0
-310 0
-305 0
-307 0
-302 0
-304 0
-299 0
-301 0
-296 0
-298 0
-293 0
-295 0
-290 0
-292 0
-287 0
-289 0
-284 0
-286 0
-281 0
-283 0
-278 0
-280 0
-275 0
-277 0
-272 0
-274 0
-269 0
-271 0
-266 0
-268 0
-263 0
-265 0
-260 0
-262 0
-257 0
-259 0
-254 0
-256 0
-251 0
-253 0
-248 0
-250 0
-245 0
-247 0
-242 0
-244 0
-239 0
-241 0
-236 0
-238 0
-233 0
-235 0
-230 0
-232 0
-227 0
-229 0
-224 0
-226 0
-221 0
-223 0
-218 0
-220 0
-215 0
-217 0
-212 0
-214 0
-209 0
-211 0
-206 0
-208 0
-199 0
-205 0
